 FexP      
1.0
   4.40571393886535       0.000000000000000E+000  0.000000000000000E+000
  -2.20285682350647        3.81546027711513       0.000000000000000E+000
  7.186074487006176E-007  1.244664556879151E-006   9.51824425572249     
Fe P
           2           2
Direct
  0.333299994468689       0.666700005531311       0.500000000000000     
  0.666700005531311       0.333299994468689       0.500000000000000     
  0.000000000000000E+000  0.000000000000000E+000  0.000000000000000E+000
  0.000000000000000E+000  0.000000000000000E+000  0.500000000000000     
